c nIsolatedPIs 8
c maxPI 56
p cnf 226 511
c gate 57 -6 -34 0
-6 -57 0
-34 -57 0
6 34 57 0
c gate 58 -7 -35 0
-7 -58 0
-35 -58 0
7 35 58 0
c gate 59 -57 -58 0
-57 -59 0
-58 -59 0
57 58 59 0
c gate 60 5 33 0
5 -60 0
33 -60 0
-5 -33 60 0
c gate 61 6 34 0
6 -61 0
34 -61 0
-6 -34 61 0
c gate 62 -60 -61 0
-60 -62 0
-61 -62 0
60 61 62 0
c gate 63 59 -62 0
59 -63 0
-62 -63 0
-59 62 63 0
c gate 64 7 35 0
7 -64 0
35 -64 0
-7 -35 64 0
c gate 65 8 36 0
8 -65 0
36 -65 0
-8 -36 65 0
c gate 66 -64 -65 0
-64 -66 0
-65 -66 0
64 65 66 0
c gate 67 -63 66 0
-63 -67 0
66 -67 0
63 -66 67 0
c gate 68 2 30 0
2 -68 0
30 -68 0
-2 -30 68 0
c gate 69 1 29 0
1 -69 0
29 -69 0
-1 -29 69 0
c gate 70 -68 -69 0
-68 -70 0
-69 -70 0
68 69 70 0
c gate 71 -3 -31 0
-3 -71 0
-31 -71 0
3 31 71 0
c gate 72 -2 -30 0
-2 -72 0
-30 -72 0
2 30 72 0
c gate 73 -71 -72 0
-71 -73 0
-72 -73 0
71 72 73 0
c gate 74 -70 73 0
-70 -74 0
73 -74 0
70 -73 74 0
c gate 75 3 31 0
3 -75 0
31 -75 0
-3 -31 75 0
c gate 76 4 32 0
4 -76 0
32 -76 0
-4 -32 76 0
c gate 77 -75 -76 0
-75 -77 0
-76 -77 0
75 76 77 0
c gate 78 -74 77 0
-74 -78 0
77 -78 0
74 -77 78 0
c gate 79 -5 -33 0
-5 -79 0
-33 -79 0
5 33 79 0
c gate 80 -8 -36 0
-8 -80 0
-36 -80 0
8 36 80 0
c gate 81 -4 -32 0
-4 -81 0
-32 -81 0
4 32 81 0
c gate 82 -80 -81 0
-80 -82 0
-81 -82 0
80 81 82 0
c gate 83 -79 82 0
-79 -83 0
82 -83 0
79 -82 83 0
c gate 84 59 83 0
59 -84 0
83 -84 0
-59 -83 84 0
c gate 85 -78 84 0
-78 -85 0
84 -85 0
78 -84 85 0
c gate 86 67 85 0
67 -86 0
85 -86 0
-67 -85 86 0
c gate 87 13 41 0
13 -87 0
41 -87 0
-13 -41 87 0
c gate 88 14 42 0
14 -88 0
42 -88 0
-14 -42 88 0
c gate 89 -87 -88 0
-87 -89 0
-88 -89 0
87 88 89 0
c gate 90 12 40 0
12 -90 0
40 -90 0
-12 -40 90 0
c gate 91 11 39 0
11 -91 0
39 -91 0
-11 -39 91 0
c gate 92 -11 -39 0
-11 -92 0
-39 -92 0
11 39 92 0
c gate 93 10 38 0
10 -93 0
38 -93 0
-10 -38 93 0
c gate 94 9 37 0
9 -94 0
37 -94 0
-9 -37 94 0
c gate 95 -67 -80 0
-67 -95 0
-80 -95 0
67 80 95 0
c gate 96 -94 -95 0
-94 -96 0
-95 -96 0
94 95 96 0
c gate 97 -9 -37 0
-9 -97 0
-37 -97 0
9 37 97 0
c gate 98 -10 -38 0
-10 -98 0
-38 -98 0
10 38 98 0
c gate 99 -97 -98 0
-97 -99 0
-98 -99 0
97 98 99 0
c gate 100 -96 99 0
-96 -100 0
99 -100 0
96 -99 100 0
c gate 101 -93 -100 0
-93 -101 0
-100 -101 0
93 100 101 0
c gate 102 -92 -101 0
-92 -102 0
-101 -102 0
92 101 102 0
c gate 103 -91 -102 0
-91 -103 0
-102 -103 0
91 102 103 0
c gate 104 -94 -97 0
-94 -104 0
-97 -104 0
94 97 104 0
c gate 105 -92 -98 0
-92 -105 0
-98 -105 0
92 98 105 0
c gate 106 104 105 0
104 -106 0
105 -106 0
-104 -105 106 0
c gate 107 86 106 0
86 -107 0
106 -107 0
-86 -106 107 0
c gate 108 103 -107 0
103 -108 0
-107 -108 0
-103 107 108 0
c gate 109 -90 108 0
-90 -109 0
108 -109 0
90 -108 109 0
c gate 110 -13 -41 0
-13 -110 0
-41 -110 0
13 41 110 0
c gate 111 -87 -110 0
-87 -111 0
-110 -111 0
87 110 111 0
c gate 112 -12 -40 0
-12 -112 0
-40 -112 0
12 40 112 0
c gate 113 111 -112 0
111 -113 0
-112 -113 0
-111 112 113 0
c gate 114 -109 113 0
-109 -114 0
113 -114 0
109 -113 114 0
c gate 115 89 -114 0
89 -115 0
-114 -115 0
-89 114 115 0
c gate 116 -16 -44 0
-16 -116 0
-44 -116 0
16 44 116 0
c gate 117 16 44 0
16 -117 0
44 -117 0
-16 -44 117 0
c gate 118 15 43 0
15 -118 0
43 -118 0
-15 -43 118 0
c gate 119 -117 -118 0
-117 -119 0
-118 -119 0
117 118 119 0
c gate 120 -116 -119 0
-116 -120 0
-119 -120 0
116 119 120 0
c gate 121 115 -120 0
115 -121 0
-120 -121 0
-115 120 121 0
c gate 122 -15 -43 0
-15 -122 0
-43 -122 0
15 43 122 0
c gate 123 -118 -122 0
-118 -123 0
-122 -123 0
118 122 123 0
c gate 124 -116 -117 0
-116 -124 0
-117 -124 0
116 117 124 0
c gate 125 -14 -42 0
-14 -125 0
-42 -125 0
14 42 125 0
c gate 126 124 -125 0
124 -126 0
-125 -126 0
-124 125 126 0
c gate 127 123 126 0
123 -127 0
126 -127 0
-123 -126 127 0
c gate 128 -120 -127 0
-120 -128 0
-127 -128 0
120 127 128 0
c gate 129 17 45 0
17 -129 0
45 -129 0
-17 -45 129 0
c gate 130 18 46 0
18 -130 0
46 -130 0
-18 -46 130 0
c gate 131 -129 -130 0
-129 -131 0
-130 -131 0
129 130 131 0
c gate 132 -20 -48 0
-20 -132 0
-48 -132 0
20 48 132 0
c gate 133 -17 -45 0
-17 -133 0
-45 -133 0
17 45 133 0
c gate 134 -132 -133 0
-132 -134 0
-133 -134 0
132 133 134 0
c gate 135 131 134 0
131 -135 0
134 -135 0
-131 -134 135 0
c gate 136 -18 -46 0
-18 -136 0
-46 -136 0
18 46 136 0
c gate 137 -19 -47 0
-19 -137 0
-47 -137 0
19 47 137 0
c gate 138 -136 -137 0
-136 -138 0
-137 -138 0
136 137 138 0
c gate 139 19 47 0
19 -139 0
47 -139 0
-19 -47 139 0
c gate 140 20 48 0
20 -140 0
48 -140 0
-20 -48 140 0
c gate 141 -139 -140 0
-139 -141 0
-140 -141 0
139 140 141 0
c gate 142 138 141 0
138 -142 0
141 -142 0
-138 -141 142 0
c gate 143 135 142 0
135 -143 0
142 -143 0
-135 -142 143 0
c gate 144 -128 143 0
-128 -144 0
143 -144 0
128 -143 144 0
c gate 145 -121 144 0
-121 -145 0
144 -145 0
121 -144 145 0
c gate 146 -131 138 0
-131 -146 0
138 -146 0
131 -138 146 0
c gate 147 141 -146 0
141 -147 0
-146 -147 0
-141 146 147 0
c gate 148 -132 -147 0
-132 -148 0
-147 -148 0
132 147 148 0
c gate 149 -145 -148 0
-145 -149 0
-148 -149 0
145 148 149 0
c gate 150 22 50 0
22 -150 0
50 -150 0
-22 -50 150 0
c gate 151 21 49 0
21 -151 0
49 -151 0
-21 -49 151 0
c gate 152 -150 -151 0
-150 -152 0
-151 -152 0
150 151 152 0
c gate 153 -24 -52 0
-24 -153 0
-52 -153 0
24 52 153 0
c gate 154 -21 -49 0
-21 -154 0
-49 -154 0
21 49 154 0
c gate 155 -153 -154 0
-153 -155 0
-154 -155 0
153 154 155 0
c gate 156 152 155 0
152 -156 0
155 -156 0
-152 -155 156 0
c gate 157 23 51 0
23 -157 0
51 -157 0
-23 -51 157 0
c gate 158 24 52 0
24 -158 0
52 -158 0
-24 -52 158 0
c gate 159 -157 -158 0
-157 -159 0
-158 -159 0
157 158 159 0
c gate 160 -22 -50 0
-22 -160 0
-50 -160 0
22 50 160 0
c gate 161 -23 -51 0
-23 -161 0
-51 -161 0
23 51 161 0
c gate 162 -160 -161 0
-160 -162 0
-161 -162 0
160 161 162 0
c gate 163 159 162 0
159 -163 0
162 -163 0
-159 -162 163 0
c gate 164 156 163 0
156 -164 0
163 -164 0
-156 -163 164 0
c gate 165 -149 164 0
-149 -165 0
164 -165 0
149 -164 165 0
c gate 166 -152 162 0
-152 -166 0
162 -166 0
152 -162 166 0
c gate 167 159 -166 0
159 -167 0
-166 -167 0
-159 166 167 0
c gate 168 -153 -167 0
-153 -168 0
-167 -168 0
153 167 168 0
c gate 169 -27 -55 0
-27 -169 0
-55 -169 0
27 55 169 0
c gate 170 27 55 0
27 -170 0
55 -170 0
-27 -55 170 0
c gate 171 -169 -170 0
-169 -171 0
-170 -171 0
169 170 171 0
c gate 172 -26 -54 0
-26 -172 0
-54 -172 0
26 54 172 0
c gate 173 26 54 0
26 -173 0
54 -173 0
-26 -54 173 0
c gate 174 -172 -173 0
-172 -174 0
-173 -174 0
172 173 174 0
c gate 175 171 174 0
171 -175 0
174 -175 0
-171 -174 175 0
c gate 176 28 -56 0
28 -176 0
-56 -176 0
-28 56 176 0
c gate 177 -28 56 0
-28 -177 0
56 -177 0
28 -56 177 0
c gate 178 -176 -177 0
-176 -178 0
-177 -178 0
176 177 178 0
c gate 179 25 -53 0
25 -179 0
-53 -179 0
-25 53 179 0
c gate 180 -25 53 0
-25 -180 0
53 -180 0
25 -53 180 0
c gate 181 -179 -180 0
-179 -181 0
-180 -181 0
179 180 181 0
c gate 182 -178 -181 0
-178 -182 0
-181 -182 0
178 181 182 0
c gate 183 175 182 0
175 -183 0
182 -183 0
-175 -182 183 0
c gate 184 168 183 0
168 -184 0
183 -184 0
-168 -183 184 0
c gate 185 -165 -184 0
-165 -185 0
-184 -185 0
165 184 185 0
c gate 186 121 127 0
121 -186 0
127 -186 0
-121 -127 186 0
c gate 187 -90 -112 0
-90 -187 0
-112 -187 0
90 112 187 0
c gate 188 -91 105 0
-91 -188 0
105 -188 0
91 -105 188 0
c gate 189 187 188 0
187 -189 0
188 -189 0
-187 -188 189 0
c gate 190 108 189 0
108 -190 0
189 -190 0
-108 -189 190 0
c gate 191 -114 -190 0
-114 -191 0
-190 -191 0
114 190 191 0
c gate 192 91 -112 0
91 -192 0
-112 -192 0
-91 112 192 0
c gate 193 -90 -192 0
-90 -193 0
-192 -193 0
90 192 193 0
c gate 194 -189 193 0
-189 -194 0
193 -194 0
189 -193 194 0
c gate 195 111 -194 0
111 -195 0
-194 -195 0
-111 194 195 0
c gate 196 -191 -195 0
-191 -196 0
-195 -196 0
191 195 196 0
c gate 197 -190 -196 0
-190 -197 0
-196 -197 0
190 196 197 0
c gate 198 -93 104 0
-93 -198 0
104 -198 0
93 -104 198 0
c gate 199 188 198 0
188 -199 0
198 -199 0
-188 -198 199 0
c gate 200 86 -199 0
86 -200 0
-199 -200 0
-86 199 200 0
c gate 201 107 -187 0
107 -201 0
-187 -201 0
-107 187 201 0
c gate 202 103 201 0
103 -202 0
201 -202 0
-103 -201 202 0
c gate 203 -200 -202 0
-200 -203 0
-202 -203 0
200 202 203 0
c gate 204 86 203 0
86 -204 0
203 -204 0
-86 -203 204 0
c gate 205 197 -204 0
197 -205 0
-204 -205 0
-197 204 205 0
c gate 206 -115 -125 0
-115 -206 0
-125 -206 0
115 125 206 0
c gate 207 89 -195 0
89 -207 0
-195 -207 0
-89 195 207 0
c gate 208 126 -207 0
126 -208 0
-207 -208 0
-126 207 208 0
c gate 209 -206 -208 0
-206 -209 0
-208 -209 0
206 208 209 0
c gate 210 -124 207 0
-124 -210 0
207 -210 0
124 -207 210 0
c gate 211 206 -210 0
206 -211 0
-210 -211 0
-206 210 211 0
c gate 212 123 -211 0
123 -212 0
-211 -212 0
-123 211 212 0
c gate 213 -209 212 0
-209 -213 0
212 -213 0
209 -212 213 0
c gate 214 -205 -213 0
-205 -214 0
-213 -214 0
205 213 214 0
c gate 215 -186 -214 0
-186 -215 0
-214 -215 0
186 214 215 0
c gate 216 -144 -215 0
-144 -216 0
-215 -216 0
144 215 216 0
c gate 217 -148 -164 0
-148 -217 0
-164 -217 0
148 164 217 0
c gate 218 145 -217 0
145 -218 0
-217 -218 0
-145 217 218 0
c gate 219 -216 -218 0
-216 -219 0
-218 -219 0
216 218 219 0
c gate 220 -86 197 0
-86 -220 0
197 -220 0
86 -197 220 0
c gate 221 -214 -220 0
-214 -221 0
-220 -221 0
214 220 221 0
c gate 222 -145 -186 0
-145 -222 0
-186 -222 0
145 186 222 0
c gate 223 -221 222 0
-221 -223 0
222 -223 0
221 -222 223 0
c gate 224 219 -223 0
219 -224 0
-223 -224 0
-219 223 224 0
c gate 225 185 -224 0
185 -225 0
-224 -225 0
-185 224 225 0
c gate 226 86 225 0
86 -226 0
225 -226 0
-86 -225 226 0
c PO
226 0
